2025-12-04 14:05:53,062 - INFO - [Scaling] length 1197 → 1102
2025-12-04 14:05:53,265 - INFO - 🧮 参数显存统计（单位：MB）
2025-12-04 14:05:53,265 - INFO - [参数显存] euclidean 总计: 1.1786 MB
2025-12-04 14:05:53,265 - INFO - [参数显存] euclidean 长度=110: 0.0327 MB
2025-12-04 14:05:53,265 - INFO - [参数显存] euclidean 长度=220: 0.0655 MB
2025-12-04 14:05:53,265 - INFO - [参数显存] euclidean 长度=330: 0.0982 MB
2025-12-04 14:05:53,265 - INFO - [参数显存] euclidean 长度=440: 0.1309 MB
2025-12-04 14:05:53,265 - INFO - [参数显存] euclidean 长度=550: 0.1637 MB
2025-12-04 14:05:53,265 - INFO - [参数显存] euclidean 长度=660: 0.1964 MB
2025-12-04 14:05:53,265 - INFO - [参数显存] euclidean 长度=770: 0.2291 MB
2025-12-04 14:05:53,265 - INFO - [参数显存] euclidean 长度=881: 0.2621 MB
2025-12-04 14:05:53,265 - INFO - [参数显存] cosine 总计: 1.1786 MB
2025-12-04 14:05:53,265 - INFO - [参数显存] cosine 长度=110: 0.0327 MB
2025-12-04 14:05:53,266 - INFO - [参数显存] cosine 长度=220: 0.0655 MB
2025-12-04 14:05:53,266 - INFO - [参数显存] cosine 长度=330: 0.0982 MB
2025-12-04 14:05:53,266 - INFO - [参数显存] cosine 长度=440: 0.1309 MB
2025-12-04 14:05:53,266 - INFO - [参数显存] cosine 长度=550: 0.1637 MB
2025-12-04 14:05:53,266 - INFO - [参数显存] cosine 长度=660: 0.1964 MB
2025-12-04 14:05:53,266 - INFO - [参数显存] cosine 长度=770: 0.2291 MB
2025-12-04 14:05:53,266 - INFO - [参数显存] cosine 长度=881: 0.2621 MB
2025-12-04 14:05:53,266 - INFO - [参数显存] 模型参数总量: 1,070,956，显存: 4.0854 MB
2025-12-04 14:05:53,833 - INFO - 📌 第一个 epoch：默认所有模块使用 checkpoint
2025-12-04 14:05:54,954 - INFO - Epoch 1 completed in 1.126155 seconds
2025-12-04 14:05:55,398 - INFO - torch.cuda.max_memory_reserved() : 6.33203125
2025-12-04 14:05:55,399 - INFO - torch.cuda.max_memory_allocated() : 1.8397130966186523
2025-12-04 14:05:55,918 - INFO - 
[🔁 拟合反向传播时间模型]
2025-12-04 14:05:55,919 - INFO - 总反向传播时间: 0.514277s
2025-12-04 14:05:55,919 - INFO - 拟合模型: backward_total ≈ 2 × (A + B) + b
2025-12-04 14:05:55,919 - INFO - A = 0.912742, B = 0.016558, b = -0.415023s
2025-12-04 14:05:55,966 - INFO - Set parameter LicenseID to value 2706656
2025-12-04 14:05:55,994 - INFO - Set parameter LogToConsole to value 1
2025-12-04 14:05:55,994 - INFO - Set parameter LogFile to value ""
2025-12-04 14:05:55,995 - INFO - Set parameter Threads to value 12
2025-12-04 14:05:55,995 - INFO - Set parameter TimeLimit to value 3600
2025-12-04 14:05:55,995 - INFO - Set parameter OptimalityTol to value 0.0001
2025-12-04 14:05:55,995 - INFO - Set parameter IntFeasTol to value 1e-05
2025-12-04 14:05:55,995 - INFO - Set parameter StartNodeLimit to value 10000000
2025-12-04 14:05:56,050 - INFO - Set parameter TimeLimit to value 3600
2025-12-04 14:05:56,051 - INFO - 
2025-12-04 14:05:56,051 - INFO - 
2025-12-04 14:05:56,051 - INFO - Restarting solve
2025-12-04 14:05:56,051 - INFO - 
2025-12-04 14:05:56,051 - INFO - 
2025-12-04 14:05:56,052 - INFO - Gurobi Optimizer version 12.0.3 build v12.0.3rc0 (linux64 - "Ubuntu 20.04.6 LTS")
2025-12-04 14:05:56,052 - INFO - 
2025-12-04 14:05:56,052 - INFO - CPU model: Intel(R) Xeon(R) Platinum 8260 CPU @ 2.40GHz, instruction set [SSE2|AVX|AVX2|AVX512]
2025-12-04 14:05:56,053 - INFO - Thread count: 48 physical cores, 96 logical processors, using up to 12 threads
2025-12-04 14:05:56,053 - INFO - 
2025-12-04 14:05:56,053 - INFO - Non-default parameters:
2025-12-04 14:05:56,053 - INFO - TimeLimit  3600
2025-12-04 14:05:56,053 - INFO - OptimalityTol  0.0001
2025-12-04 14:05:56,053 - INFO - StartNodeLimit  10000000
2025-12-04 14:05:56,053 - INFO - Threads  12
2025-12-04 14:05:56,053 - INFO - 
2025-12-04 14:05:56,053 - INFO - Optimize a model with 5603 rows, 3584 columns and 15200 nonzeros
2025-12-04 14:05:56,053 - INFO - Model fingerprint: 0x17f4b994
2025-12-04 14:05:56,053 - INFO - Variable types: 1024 continuous, 2560 integer (2560 binary)
2025-12-04 14:05:56,053 - INFO - Coefficient statistics:
2025-12-04 14:05:56,053 - INFO -   Matrix range     [1e+00, 2e+15]
2025-12-04 14:05:56,053 - INFO -   Objective range  [4e+04, 2e+06]
2025-12-04 14:05:56,053 - INFO -   Bounds range     [1e+00, 2e+16]
2025-12-04 14:05:56,053 - INFO -   RHS range        [1e+00, 2e+16]
2025-12-04 14:05:56,053 - INFO - Warning: Model contains large matrix coefficient range
2025-12-04 14:05:56,053 - INFO - Warning: Model contains large rhs
2025-12-04 14:05:56,053 - INFO - Warning: Model contains large bounds
2025-12-04 14:05:56,053 - INFO -          Consider reformulating model or setting NumericFocus parameter
2025-12-04 14:05:56,053 - INFO -          to avoid numerical issues.
2025-12-04 14:05:56,068 - INFO - Presolve removed 4283 rows and 1964 columns
2025-12-04 14:05:56,068 - INFO - Presolve time: 0.01s
2025-12-04 14:05:56,068 - INFO - Presolved: 1320 rows, 1620 columns, 4514 nonzeros
2025-12-04 14:05:56,069 - INFO - Variable types: 0 continuous, 1620 integer (1095 binary)
2025-12-04 14:05:56,081 - INFO - 
2025-12-04 14:05:56,081 - INFO - Root relaxation: objective 2.458300e+07, 405 iterations, 0.00 seconds (0.00 work units)
2025-12-04 14:05:56,084 - INFO - 
2025-12-04 14:05:56,084 - INFO -     Nodes    |    Current Node    |     Objective Bounds      |     Work
2025-12-04 14:05:56,084 - INFO -  Expl Unexpl |  Obj  Depth IntInf | Incumbent    BestBd   Gap | It/Node Time
2025-12-04 14:05:56,084 - INFO - 
2025-12-04 14:05:56,084 - INFO -      0     0 2.4583e+07    0    5          - 2.4583e+07      -     -    0s
2025-12-04 14:05:56,104 - INFO - H    0     0                    3.687451e+07 2.4583e+07  33.3%     -    0s
2025-12-04 14:05:56,106 - INFO - *    0     0               0    2.458300e+07 2.4583e+07  0.00%     -    0s
2025-12-04 14:05:56,106 - INFO - 
2025-12-04 14:05:56,106 - INFO - Cutting planes:
2025-12-04 14:05:56,106 - INFO -   Cover: 5
2025-12-04 14:05:56,106 - INFO - 
2025-12-04 14:05:56,106 - INFO - Explored 1 nodes (410 simplex iterations) in 0.05 seconds (0.03 work units)
2025-12-04 14:05:56,106 - INFO - Thread count was 12 (of 96 available processors)
2025-12-04 14:05:56,106 - INFO - 
2025-12-04 14:05:56,107 - INFO - Solution count 2: 2.4583e+07 3.68745e+07 
2025-12-04 14:05:56,107 - INFO - 
2025-12-04 14:05:56,107 - INFO - Optimal solution found (tolerance 1.00e-04)
2025-12-04 14:05:56,107 - INFO - Best objective 2.458300400000e+07, best bound 2.458300400000e+07, gap 0.0000%
2025-12-04 14:05:56,117 - INFO - 规划前的显存GB：18.0
2025-12-04 14:05:56,117 - INFO - 规划后的显存GB：13.702344417572021
2025-12-04 14:05:56,117 - INFO - 规划前的显存GB：18.0
2025-12-04 14:05:56,117 - INFO - 规划后的显存GB：5.612923137843609
2025-12-04 14:05:56,117 - INFO - ✅ 最优策略：[1, 1, 1, 1, 1, 1, 1, 1, 1, 1, 1, 1, 1, 1, 1, 1]
2025-12-04 14:05:56,117 - INFO - 📌 checkpoint 的欧氏长度:, []
2025-12-04 14:05:56,117 - INFO - 📌 checkpoint 的余弦长度:, []
2025-12-04 14:05:56,117 - INFO - 💾 最终显存峰值：%.2f MB % 12068.585922241211
2025-12-04 14:05:56,117 - INFO - 🕒 显存计划规划时间: 0.20 秒
2025-12-04 14:05:56,117 - INFO - Epoch 2 completed in 0.718461 seconds
2025-12-04 14:05:56,118 - INFO - torch.cuda.max_memory_reserved() : 6.33203125
2025-12-04 14:05:56,118 - INFO - torch.cuda.max_memory_allocated() : 1.8397130966186523
2025-12-04 14:05:56,483 - INFO - Epoch 3 completed in 0.364885 seconds
2025-12-04 14:05:56,484 - INFO - 
====================== [第1个 Epoch 收集统计数据] ======================
2025-12-04 14:05:56,484 - INFO - 
🔍 EUCLIDEAN modules:
2025-12-04 14:05:56,484 - INFO - [Shapelet 110] forward_avg=0.018319s over 2 calls | peak=489.18MB | final=0.00MB
2025-12-04 14:05:56,484 - INFO - [Shapelet 220] forward_avg=0.010161s over 2 calls | peak=864.12MB | final=0.00MB
2025-12-04 14:05:56,484 - INFO - [Shapelet 330] forward_avg=0.016172s over 2 calls | peak=1132.59MB | final=0.00MB
2025-12-04 14:05:56,484 - INFO - [Shapelet 440] forward_avg=0.016769s over 2 calls | peak=1296.36MB | final=0.00MB
2025-12-04 14:05:56,484 - INFO - [Shapelet 550] forward_avg=0.018627s over 2 calls | peak=1352.13MB | final=0.00MB
2025-12-04 14:05:56,484 - INFO - [Shapelet 660] forward_avg=0.016753s over 2 calls | peak=1300.49MB | final=0.00MB
2025-12-04 14:05:56,484 - INFO - [Shapelet 770] forward_avg=0.009917s over 2 calls | peak=1143.85MB | final=0.00MB
2025-12-04 14:05:56,485 - INFO - [Shapelet 881] forward_avg=0.012057s over 2 calls | peak=878.46MB | final=0.00MB
2025-12-04 14:05:56,485 - INFO - 
🔍 COSINE modules:
2025-12-04 14:05:56,485 - INFO - [Shapelet 110] forward_avg=0.002029s over 2 calls | peak=321.46MB | final=0.00MB
2025-12-04 14:05:56,485 - INFO - [Shapelet 220] forward_avg=0.002973s over 2 calls | peak=571.27MB | final=0.00MB
2025-12-04 14:05:56,485 - INFO - [Shapelet 330] forward_avg=0.004074s over 2 calls | peak=748.87MB | final=0.00MB
2025-12-04 14:05:56,485 - INFO - [Shapelet 440] forward_avg=0.008112s over 2 calls | peak=856.97MB | final=0.00MB
2025-12-04 14:05:56,485 - INFO - [Shapelet 550] forward_avg=0.005795s over 2 calls | peak=892.81MB | final=0.00MB
2025-12-04 14:05:56,485 - INFO - [Shapelet 660] forward_avg=0.003954s over 2 calls | peak=857.23MB | final=0.00MB
2025-12-04 14:05:56,485 - INFO - [Shapelet 770] forward_avg=0.003614s over 2 calls | peak=752.09MB | final=0.00MB
2025-12-04 14:05:56,486 - INFO - [Shapelet 881] forward_avg=0.002798s over 2 calls | peak=573.32MB | final=0.00MB
2025-12-04 14:05:56,486 - INFO - 
🔍 CROSS modules:
2025-12-04 14:05:56,486 - INFO - [Shapelet 110] forward_avg=0.000407s over 2 calls
2025-12-04 14:05:56,486 - INFO - [Shapelet 220] forward_avg=0.000433s over 2 calls
2025-12-04 14:05:56,486 - INFO - [Shapelet 330] forward_avg=0.000542s over 2 calls
2025-12-04 14:05:56,486 - INFO - [Shapelet 440] forward_avg=0.000637s over 2 calls
2025-12-04 14:05:56,486 - INFO - [Shapelet 550] forward_avg=0.000556s over 2 calls
2025-12-04 14:05:56,486 - INFO - [Shapelet 660] forward_avg=0.000501s over 2 calls
2025-12-04 14:05:56,486 - INFO - [Shapelet 770] forward_avg=0.000565s over 2 calls
2025-12-04 14:05:56,486 - INFO - [Shapelet 881] forward_avg=0.000497s over 2 calls
2025-12-04 14:05:56,487 - INFO - 
💾 模型第一次反向传播阶段的显存峰值（所有模块中的最大值）: 9166.75 MB
2025-12-04 14:05:56,487 - INFO - 
💾 模型初始显存: 5.73 MB
2025-12-04 14:05:56,487 - INFO - =======================================================================

2025-12-04 14:05:56,487 - INFO - torch.cuda.max_memory_reserved() : 12.759765625
2025-12-04 14:05:56,488 - INFO - torch.cuda.max_memory_allocated() : 11.536900520324707
2025-12-04 14:05:56,849 - INFO - Epoch 4 completed in 0.361140 seconds
2025-12-04 14:05:56,850 - INFO - torch.cuda.max_memory_reserved() : 12.759765625
2025-12-04 14:05:56,851 - INFO - torch.cuda.max_memory_allocated() : 11.538317203521729
2025-12-04 14:05:57,203 - INFO - Epoch 5 completed in 0.351467 seconds
2025-12-04 14:05:57,204 - INFO - torch.cuda.max_memory_reserved() : 12.759765625
2025-12-04 14:05:57,204 - INFO - torch.cuda.max_memory_allocated() : 11.538317203521729
2025-12-04 14:05:57,558 - INFO - Epoch 6 completed in 0.354183 seconds
2025-12-04 14:05:57,559 - INFO - torch.cuda.max_memory_reserved() : 12.759765625
2025-12-04 14:05:57,559 - INFO - torch.cuda.max_memory_allocated() : 11.538317203521729
2025-12-04 14:05:57,916 - INFO - Epoch 7 completed in 0.357100 seconds
2025-12-04 14:05:57,917 - INFO - torch.cuda.max_memory_reserved() : 12.759765625
2025-12-04 14:05:57,918 - INFO - torch.cuda.max_memory_allocated() : 11.538317203521729
2025-12-04 14:05:58,280 - INFO - Epoch 8 completed in 0.359925 seconds
2025-12-04 14:05:58,280 - INFO - torch.cuda.max_memory_reserved() : 12.76171875
2025-12-04 14:05:58,281 - INFO - torch.cuda.max_memory_allocated() : 11.538317203521729
2025-12-04 14:05:58,648 - INFO - Epoch 9 completed in 0.365712 seconds
2025-12-04 14:05:58,649 - INFO - torch.cuda.max_memory_reserved() : 12.76171875
2025-12-04 14:05:58,649 - INFO - torch.cuda.max_memory_allocated() : 11.538317203521729
2025-12-04 14:05:59,015 - INFO - Epoch 10 completed in 0.364789 seconds
2025-12-04 14:05:59,490 - INFO - torch.cuda.max_memory_reserved() : 12.76171875
2025-12-04 14:05:59,491 - INFO - torch.cuda.max_memory_allocated() : 11.538317203521729
2025-12-04 14:05:59,491 - INFO - !!!采用策略后的几个epoch 平均时间:0.35990020632743835
2025-12-04 14:05:59,491 - INFO - 



